22      4       
14      18      15      18      
0       0       0       0       0       3       2       3       4       
6       4       9       0       6       2       5       10      
6       0       9       4       7       3       7       12      15      
7       7       0       4       0       1       20      
3       0       0       0       9       3       6       7       8       
4       0       0       0       8       3       9       12      15      
10      0       9       0       3       1       14      
1       0       8       4       0       2       11      17      
9       0       1       10      0       1       13      
7       8       9       0       1       1       14      
8       1       0       0       5       2       13      18      
10      9       6       0       0       2       16      18      
4       7       4       0       0       1       16      
7       2       7       0       10      1       16      
4       0       0       1       6       1       18      
10      0       0       3       6       1       21      
2       0       0       0       9       1       20      
7       5       9       0       0       1       19      
2       5       0       5       8       1       22      
3       0       0       9       0       1       22      
1       0       0       2       4       1       22      
0       0       0       0       0       0       